p tw 37 258
0 1
0 2
0 3
0 4
0 5
0 6
0 7
0 8
0 9
0 10
1 2
1 3
1 4
1 5
1 6
1 7
1 8
1 9
1 10
2 3
2 4
2 5
2 6
2 7
2 8
2 9
2 10
2 18
2 21
2 22
2 23
2 24
2 25
2 26
2 27
2 28
2 29
3 4
3 5
3 6
3 7
3 8
3 9
3 10
3 18
3 21
3 22
3 23
3 24
3 25
3 26
3 27
3 28
3 29
4 5
4 6
4 7
4 8
4 9
4 10
4 18
4 21
4 22
4 23
4 24
4 25
4 26
4 27
4 28
4 29
5 6
5 7
5 8
5 9
5 10
6 7
6 8
6 9
6 10
7 8
7 9
7 10
8 9
8 10
8 11
8 12
8 14
8 28
8 30
8 31
8 32
8 33
8 34
8 35
8 36
9 10
10 11
10 12
10 14
10 28
10 30
10 31
10 32
10 33
10 34
10 35
10 36
11 12
11 13
11 14
11 15
11 16
11 17
11 18
11 19
11 20
11 21
11 28
11 30
11 31
11 32
11 33
11 34
11 35
11 36
12 13
12 14
12 15
12 16
12 17
12 18
12 19
12 20
12 21
12 28
12 30
12 31
12 32
12 33
12 34
12 35
12 36
13 14
13 15
13 16
13 17
13 18
13 19
13 20
13 21
14 15
14 16
14 17
14 18
14 19
14 20
14 21
14 28
14 30
14 31
14 32
14 33
14 34
14 35
14 36
15 16
15 17
15 18
15 19
15 20
15 21
16 17
16 18
16 19
16 20
16 21
17 18
17 19
17 20
17 21
18 19
18 20
18 21
18 22
18 23
18 24
18 25
18 26
18 27
18 28
18 29
19 20
19 21
20 21
21 22
21 23
21 24
21 25
21 26
21 27
21 28
21 29
22 23
22 24
22 25
22 26
22 27
22 28
22 29
23 24
23 25
23 26
23 27
23 28
23 29
24 25
24 26
24 27
24 28
24 29
25 26
25 27
25 28
25 29
26 27
26 28
26 29
27 28
27 29
28 29
28 30
28 31
28 32
28 33
28 34
28 35
28 36
30 31
30 32
30 33
30 34
30 35
30 36
31 32
31 33
31 34
31 35
31 36
32 33
32 34
32 35
32 36
33 34
33 35
33 36
34 35
34 36
35 36
